10
0, 777, 858, 546, 340, 691, 925, 869, 303, 309
777, 0, 109, 554, 836, 590, 269, 121, 820, 760
858, 109, 0, 565, 880, 697, 169, 162, 922, 807
546, 554, 565, 0, 372, 899, 530, 676, 784, 317
340, 836, 880, 372, 0, 961, 884, 951, 643, 76
691, 590, 697, 899, 961, 0, 858, 575, 500, 896
925, 269, 169, 530, 884, 858, 0, 329, 1034, 816
869, 121, 162, 676, 951, 575, 329, 0, 878, 876
303, 820, 922, 784, 643, 500, 1034, 878, 0, 606
309, 760, 807, 317, 76, 896, 816, 876, 606, 0
